proyfinal/src/viki/013/experimentInOfficeAgust.take6.output/683ef353-7929-44a3-86f9-961190f7b6fd.als.dat
{'cnf.clauses': '118081',
 'cnf.totvars': '69608',
 'conflict literals': '94',
 'conflicts': '30',
 'decisions': '12452',
 'memused.mb': '16.84',
 'outcome': 'UNSAT',
 'propagations': '44273',
 'restarts': '1',
 'solver.msecs': 31,
 'task.msecs': 71}
