proyfinal/src/viki/013/experimentInOfficeAgust.take6.output/683ef353-7929-44a3-86f9-961190f7b6fd.als.out
Reading from standard input... Use '--help' for help.
============================[ Problem Statistics ]=============================
|                                                                             |
|  Number of variables:         69608                                         |
|  Number of clauses:          118081                                         |
|  Parse time:                   0.02 s                                       |
|                                                                             |
============================[ Search Statistics ]==============================
| Conflicts |          ORIGINAL         |          LEARNT          | Progress |
|           |    Vars  Clauses Literals |    Limit  Clauses Lit/Cl |          |
===============================================================================
===============================================================================
restarts              : 1
conflicts             : 30             (948 /sec)
decisions             : 12452          (0.00 % random) (393354 /sec)
propagations          : 44273          (1398566 /sec)
conflict literals     : 94             (0.00 % deleted)
Memory used           : 16.84 MB
CPU time              : 0.031656 s

UNSATISFIABLE
